
Gurobi 7.0.2 (linux64, Python) logging started Fri Sep  7 11:33:28 2018


Gurobi 7.0.2 (linux64, Python) logging started Fri Sep  7 11:39:26 2018

Optimize a model with 2 rows, 3 columns and 5 nonzeros
Variable types: 0 continuous, 3 integer (3 binary)
Coefficient statistics:
  Matrix range     [1e+00, 3e+00]
  Objective range  [1e+00, 2e+00]
  Bounds range     [1e+00, 1e+00]
  RHS range        [1e+00, 4e+00]
Presolve removed 2 rows and 3 columns
Presolve time: 0.04s
Presolve: All rows and columns removed

Explored 0 nodes (0 simplex iterations) in 0.06 seconds
Thread count was 1 (of 8 available processors)

Solution count 1: 3 
Pool objective bound 3

Optimal solution found (tolerance 1.00e-04)
Best objective 3.000000000000e+00, best bound 3.000000000000e+00, gap 0.0000%

Gurobi 7.0.2 (linux64, Python) logging started Fri Sep  7 13:37:13 2018

Optimize a model with 2 rows, 3 columns and 5 nonzeros
Variable types: 0 continuous, 3 integer (3 binary)
Coefficient statistics:
  Matrix range     [1e+00, 3e+00]
  Objective range  [1e+00, 2e+00]
  Bounds range     [1e+00, 1e+00]
  RHS range        [1e+00, 4e+00]
Presolve removed 2 rows and 3 columns
Presolve time: 0.04s
Presolve: All rows and columns removed

Explored 0 nodes (0 simplex iterations) in 0.06 seconds
Thread count was 1 (of 8 available processors)

Solution count 1: 3 
Pool objective bound 3

Optimal solution found (tolerance 1.00e-04)
Best objective 3.000000000000e+00, best bound 3.000000000000e+00, gap 0.0000%

Gurobi 7.0.2 (linux64, Python) logging started Fri Sep  7 13:37:53 2018

Optimize a model with 2 rows, 3 columns and 5 nonzeros
Variable types: 0 continuous, 3 integer (3 binary)
Coefficient statistics:
  Matrix range     [1e+00, 3e+00]
  Objective range  [1e+00, 2e+00]
  Bounds range     [1e+00, 1e+00]
  RHS range        [1e+00, 4e+00]
Presolve removed 2 rows and 3 columns
Presolve time: 0.00s
Presolve: All rows and columns removed

Explored 0 nodes (0 simplex iterations) in 0.00 seconds
Thread count was 1 (of 8 available processors)

Solution count 1: 3 
Pool objective bound 3

Optimal solution found (tolerance 1.00e-04)
Best objective 3.000000000000e+00, best bound 3.000000000000e+00, gap 0.0000%

Gurobi 7.0.2 (linux64, Python) logging started Sat Sep  8 15:01:33 2018

Optimize a model with 2 rows, 3 columns and 5 nonzeros
Variable types: 0 continuous, 3 integer (3 binary)
Coefficient statistics:
  Matrix range     [1e+00, 3e+00]
  Objective range  [1e+00, 2e+00]
  Bounds range     [1e+00, 1e+00]
  RHS range        [1e+00, 4e+00]
Presolve removed 2 rows and 3 columns
Presolve time: 0.04s
Presolve: All rows and columns removed

Explored 0 nodes (0 simplex iterations) in 0.06 seconds
Thread count was 1 (of 8 available processors)

Solution count 1: 3 
Pool objective bound 3

Optimal solution found (tolerance 1.00e-04)
Best objective 3.000000000000e+00, best bound 3.000000000000e+00, gap 0.0000%

Gurobi 7.0.2 (linux64, Python) logging started Sat Sep  8 17:04:07 2018


Gurobi 7.0.2 (linux64, Python) logging started Sat Sep  8 17:08:33 2018


Gurobi 7.0.2 (linux64, Python) logging started Sat Sep  8 17:17:31 2018


Gurobi 7.0.2 (linux64, Python) logging started Sat Sep  8 17:18:41 2018


Gurobi 7.0.2 (linux64, Python) logging started Sat Sep  8 17:19:34 2018


Gurobi 7.0.2 (linux64, Python) logging started Sat Sep  8 17:21:39 2018

Optimize a model with 1050 rows, 1000 columns and 2000 nonzeros
Variable types: 0 continuous, 1000 integer (1000 binary)
Coefficient statistics:
  Matrix range     [1e+00, 1e+00]
  Objective range  [1e+00, 1e+00]
  Bounds range     [1e+00, 1e+00]
  RHS range        [1e+00, 1e+00]
Found heuristic solution: objective -0
Presolve removed 1050 rows and 1000 columns
Presolve time: 0.04s
Presolve: All rows and columns removed

Explored 0 nodes (0 simplex iterations) in 0.10 seconds
Thread count was 1 (of 8 available processors)

Solution count 1: -0 
Pool objective bound -0

Optimal solution found (tolerance 1.00e-04)
Best objective -0.000000000000e+00, best bound -0.000000000000e+00, gap 0.0000%

Gurobi 7.0.2 (linux64, Python) logging started Sat Sep  8 17:22:28 2018


Gurobi 7.0.2 (linux64, Python) logging started Sat Sep  8 17:23:10 2018

Optimize a model with 1030 rows, 1000 columns and 1980 nonzeros
Variable types: 0 continuous, 1000 integer (1000 binary)
Coefficient statistics:
  Matrix range     [1e+00, 1e+00]
  Objective range  [1e+00, 1e+00]
  Bounds range     [1e+00, 1e+00]
  RHS range        [1e+00, 1e+00]
Found heuristic solution: objective 20
Presolve removed 1030 rows and 1000 columns
Presolve time: 0.00s
Presolve: All rows and columns removed

Explored 0 nodes (0 simplex iterations) in 0.00 seconds
Thread count was 1 (of 8 available processors)

Solution count 1: 20 
Pool objective bound 20

Optimal solution found (tolerance 1.00e-04)
Best objective 2.000000000000e+01, best bound 2.000000000000e+01, gap 0.0000%

Gurobi 7.0.2 (linux64, Python) logging started Sat Sep  8 17:23:38 2018


Gurobi 7.0.2 (linux64, Python) logging started Sat Sep  8 17:23:51 2018


Gurobi 7.0.2 (linux64, Python) logging started Sat Sep  8 17:24:02 2018


Gurobi 7.0.2 (linux64, Python) logging started Sat Sep  8 17:25:45 2018

Optimize a model with 822 rows, 1000 columns and 1772 nonzeros
Variable types: 0 continuous, 1000 integer (1000 binary)
Coefficient statistics:
  Matrix range     [1e+00, 1e+00]
  Objective range  [1e+00, 1e+00]
  Bounds range     [1e+00, 1e+00]
  RHS range        [1e+00, 1e+00]
Found heuristic solution: objective 50
Presolve removed 822 rows and 1000 columns
Presolve time: 0.00s
Presolve: All rows and columns removed

Explored 0 nodes (0 simplex iterations) in 0.00 seconds
Thread count was 1 (of 8 available processors)

Solution count 1: 50 
Pool objective bound 50

Optimal solution found (tolerance 1.00e-04)
Best objective 5.000000000000e+01, best bound 5.000000000000e+01, gap 0.0000%

Gurobi 7.0.2 (linux64, Python) logging started Sat Sep  8 17:26:14 2018


Gurobi 7.0.2 (linux64, Python) logging started Sat Sep  8 17:26:55 2018


Gurobi 7.0.2 (linux64, Python) logging started Sat Sep  8 17:28:32 2018


Gurobi 7.0.2 (linux64, Python) logging started Sat Sep  8 17:29:07 2018


Gurobi 7.0.2 (linux64, Python) logging started Sat Sep  8 17:30:11 2018


Gurobi 7.0.2 (linux64, Python) logging started Sat Sep  8 17:31:08 2018


Gurobi 7.0.2 (linux64, Python) logging started Sat Sep  8 17:31:33 2018

Optimize a model with 842 rows, 1000 columns and 4436 nonzeros
Variable types: 0 continuous, 1000 integer (1000 binary)
Coefficient statistics:
  Matrix range     [1e+00, 1e+00]
  Objective range  [1e+00, 1e+00]
  Bounds range     [1e+00, 1e+00]
  RHS range        [1e+00, 1e+00]
Found heuristic solution: objective 19
Presolve removed 780 rows and 788 columns
Presolve time: 0.05s
Presolved: 62 rows, 212 columns, 556 nonzeros
Variable types: 0 continuous, 212 integer (212 binary)

Root relaxation: objective 2.000000e+01, 55 iterations, 0.02 seconds

    Nodes    |    Current Node    |     Objective Bounds      |     Work
 Expl Unexpl |  Obj  Depth IntInf | Incumbent    BestBd   Gap | It/Node Time

*    0     0               0      20.0000000   20.00000  0.00%     -    0s

Explored 0 nodes (55 simplex iterations) in 0.09 seconds
Thread count was 8 (of 8 available processors)

Solution count 2: 20 19 
Pool objective bound 20

Optimal solution found (tolerance 1.00e-04)
Best objective 2.000000000000e+01, best bound 2.000000000000e+01, gap 0.0000%

Gurobi 7.0.2 (linux64, Python) logging started Sat Sep  8 17:32:17 2018

Optimize a model with 842 rows, 1000 columns and 4436 nonzeros
Variable types: 0 continuous, 1000 integer (1000 binary)
Coefficient statistics:
  Matrix range     [1e+00, 1e+00]
  Objective range  [1e+00, 1e+00]
  Bounds range     [1e+00, 1e+00]
  RHS range        [1e+00, 1e+00]
Found heuristic solution: objective 19
Presolve removed 780 rows and 788 columns
Presolve time: 0.00s
Presolved: 62 rows, 212 columns, 556 nonzeros
Variable types: 0 continuous, 212 integer (212 binary)

Root relaxation: objective 2.000000e+01, 55 iterations, 0.00 seconds

    Nodes    |    Current Node    |     Objective Bounds      |     Work
 Expl Unexpl |  Obj  Depth IntInf | Incumbent    BestBd   Gap | It/Node Time

*    0     0               0      20.0000000   20.00000  0.00%     -    0s

Explored 0 nodes (55 simplex iterations) in 0.01 seconds
Thread count was 8 (of 8 available processors)

Solution count 2: 20 19 
Pool objective bound 20

Optimal solution found (tolerance 1.00e-04)
Best objective 2.000000000000e+01, best bound 2.000000000000e+01, gap 0.0000%

Gurobi 7.0.2 (linux64, Python) logging started Sat Sep  8 17:38:22 2018

Optimize a model with 842 rows, 1000 columns and 4436 nonzeros
Variable types: 0 continuous, 1000 integer (1000 binary)
Coefficient statistics:
  Matrix range     [1e+00, 1e+00]
  Objective range  [1e+00, 1e+00]
  Bounds range     [1e+00, 1e+00]
  RHS range        [1e+00, 1e+00]
Found heuristic solution: objective 19
Presolve removed 780 rows and 788 columns
Presolve time: 0.00s
Presolved: 62 rows, 212 columns, 556 nonzeros
Variable types: 0 continuous, 212 integer (212 binary)

Root relaxation: objective 2.000000e+01, 55 iterations, 0.00 seconds

    Nodes    |    Current Node    |     Objective Bounds      |     Work
 Expl Unexpl |  Obj  Depth IntInf | Incumbent    BestBd   Gap | It/Node Time

*    0     0               0      20.0000000   20.00000  0.00%     -    0s

Explored 0 nodes (55 simplex iterations) in 0.01 seconds
Thread count was 8 (of 8 available processors)

Solution count 2: 20 19 
Pool objective bound 20

Optimal solution found (tolerance 1.00e-04)
Best objective 2.000000000000e+01, best bound 2.000000000000e+01, gap 0.0000%

Gurobi 7.0.2 (linux64, Python) logging started Sat Sep  8 17:39:24 2018

Optimize a model with 842 rows, 1000 columns and 4436 nonzeros
Variable types: 0 continuous, 1000 integer (1000 binary)
Coefficient statistics:
  Matrix range     [1e+00, 1e+00]
  Objective range  [1e+00, 1e+00]
  Bounds range     [1e+00, 1e+00]
  RHS range        [1e+00, 1e+00]
Found heuristic solution: objective 19
Presolve removed 780 rows and 788 columns
Presolve time: 0.00s
Presolved: 62 rows, 212 columns, 556 nonzeros
Variable types: 0 continuous, 212 integer (212 binary)

Root relaxation: objective 2.000000e+01, 55 iterations, 0.00 seconds

    Nodes    |    Current Node    |     Objective Bounds      |     Work
 Expl Unexpl |  Obj  Depth IntInf | Incumbent    BestBd   Gap | It/Node Time

*    0     0               0      20.0000000   20.00000  0.00%     -    0s

Explored 0 nodes (55 simplex iterations) in 0.01 seconds
Thread count was 8 (of 8 available processors)

Solution count 2: 20 19 
Pool objective bound 20

Optimal solution found (tolerance 1.00e-04)
Best objective 2.000000000000e+01, best bound 2.000000000000e+01, gap 0.0000%

Gurobi 7.0.2 (linux64, Python) logging started Mon Sep 10 10:08:58 2018

Optimize a model with 842 rows, 1000 columns and 4436 nonzeros
Variable types: 0 continuous, 1000 integer (1000 binary)
Coefficient statistics:
  Matrix range     [1e+00, 1e+00]
  Objective range  [1e+00, 1e+00]
  Bounds range     [1e+00, 1e+00]
  RHS range        [1e+00, 1e+00]
Found heuristic solution: objective 19
Presolve removed 780 rows and 788 columns
Presolve time: 0.02s
Presolved: 62 rows, 212 columns, 556 nonzeros
Variable types: 0 continuous, 212 integer (212 binary)

Root relaxation: objective 2.000000e+01, 55 iterations, 0.00 seconds

    Nodes    |    Current Node    |     Objective Bounds      |     Work
 Expl Unexpl |  Obj  Depth IntInf | Incumbent    BestBd   Gap | It/Node Time

*    0     0               0      20.0000000   20.00000  0.00%     -    0s

Explored 0 nodes (55 simplex iterations) in 0.08 seconds
Thread count was 8 (of 8 available processors)

Solution count 2: 20 19 
Pool objective bound 20

Optimal solution found (tolerance 1.00e-04)
Best objective 2.000000000000e+01, best bound 2.000000000000e+01, gap 0.0000%

Gurobi 7.0.2 (linux64, Python) logging started Mon Sep 10 10:09:14 2018

Optimize a model with 842 rows, 1000 columns and 4436 nonzeros
Variable types: 0 continuous, 1000 integer (1000 binary)
Coefficient statistics:
  Matrix range     [1e+00, 1e+00]
  Objective range  [1e+00, 1e+00]
  Bounds range     [1e+00, 1e+00]
  RHS range        [1e+00, 1e+00]
Found heuristic solution: objective 19
Presolve removed 780 rows and 788 columns
Presolve time: 0.00s
Presolved: 62 rows, 212 columns, 556 nonzeros
Variable types: 0 continuous, 212 integer (212 binary)

Root relaxation: objective 2.000000e+01, 48 iterations, 0.00 seconds

    Nodes    |    Current Node    |     Objective Bounds      |     Work
 Expl Unexpl |  Obj  Depth IntInf | Incumbent    BestBd   Gap | It/Node Time

*    0     0               0      20.0000000   20.00000  0.00%     -    0s

Explored 0 nodes (48 simplex iterations) in 0.00 seconds
Thread count was 8 (of 8 available processors)

Solution count 2: 20 19 
Pool objective bound 20

Optimal solution found (tolerance 1.00e-04)
Best objective 2.000000000000e+01, best bound 2.000000000000e+01, gap 0.0000%

Gurobi 7.0.2 (linux64, Python) logging started Mon Sep 10 10:10:08 2018

Optimize a model with 842 rows, 1000 columns and 4436 nonzeros
Variable types: 0 continuous, 1000 integer (1000 binary)
Coefficient statistics:
  Matrix range     [1e+00, 1e+00]
  Objective range  [1e+00, 1e+00]
  Bounds range     [1e+00, 1e+00]
  RHS range        [1e+00, 1e+00]
Found heuristic solution: objective 19
Presolve removed 780 rows and 788 columns
Presolve time: 0.00s
Presolved: 62 rows, 212 columns, 556 nonzeros
Variable types: 0 continuous, 212 integer (212 binary)

Root relaxation: objective 2.000000e+01, 59 iterations, 0.00 seconds

    Nodes    |    Current Node    |     Objective Bounds      |     Work
 Expl Unexpl |  Obj  Depth IntInf | Incumbent    BestBd   Gap | It/Node Time

*    0     0               0      20.0000000   20.00000  0.00%     -    0s

Explored 0 nodes (59 simplex iterations) in 0.01 seconds
Thread count was 8 (of 8 available processors)

Solution count 2: 20 19 
Pool objective bound 20

Optimal solution found (tolerance 1.00e-04)
Best objective 2.000000000000e+01, best bound 2.000000000000e+01, gap 0.0000%

Gurobi 7.0.2 (linux64, Python) logging started Mon Sep 10 10:10:45 2018

Optimize a model with 842 rows, 1000 columns and 4436 nonzeros
Variable types: 0 continuous, 1000 integer (1000 binary)
Coefficient statistics:
  Matrix range     [1e+00, 1e+00]
  Objective range  [1e+00, 1e+00]
  Bounds range     [1e+00, 1e+00]
  RHS range        [1e+00, 1e+00]
Found heuristic solution: objective 18
Presolve removed 780 rows and 788 columns
Presolve time: 0.00s
Presolved: 62 rows, 212 columns, 556 nonzeros
Variable types: 0 continuous, 212 integer (212 binary)

Root relaxation: objective 2.000000e+01, 63 iterations, 0.00 seconds

    Nodes    |    Current Node    |     Objective Bounds      |     Work
 Expl Unexpl |  Obj  Depth IntInf | Incumbent    BestBd   Gap | It/Node Time

*    0     0               0      20.0000000   20.00000  0.00%     -    0s

Explored 0 nodes (63 simplex iterations) in 0.00 seconds
Thread count was 8 (of 8 available processors)

Solution count 2: 20 18 
Pool objective bound 20

Optimal solution found (tolerance 1.00e-04)
Best objective 2.000000000000e+01, best bound 2.000000000000e+01, gap 0.0000%

Gurobi 7.0.2 (linux64, Python) logging started Mon Sep 10 10:13:20 2018

Optimize a model with 842 rows, 1000 columns and 4436 nonzeros
Variable types: 0 continuous, 1000 integer (1000 binary)
Coefficient statistics:
  Matrix range     [1e+00, 1e+00]
  Objective range  [1e+00, 8e+00]
  Bounds range     [1e+00, 1e+00]
  RHS range        [1e+00, 1e+00]
Found heuristic solution: objective 19
Presolve removed 772 rows and 772 columns
Presolve time: 0.00s
Presolved: 70 rows, 228 columns, 780 nonzeros
Variable types: 0 continuous, 228 integer (228 binary)

Root relaxation: objective 2.125000e+01, 21 iterations, 0.00 seconds

    Nodes    |    Current Node    |     Objective Bounds      |     Work
 Expl Unexpl |  Obj  Depth IntInf | Incumbent    BestBd   Gap | It/Node Time

*    0     0               0      21.2500000   21.25000  0.00%     -    0s

Explored 0 nodes (21 simplex iterations) in 0.01 seconds
Thread count was 8 (of 8 available processors)

Solution count 2: 21.25 19 
Pool objective bound 21.25

Optimal solution found (tolerance 1.00e-04)
Best objective 2.125000000000e+01, best bound 2.125000000000e+01, gap 0.0000%

Gurobi 7.0.2 (linux64, Python) logging started Mon Sep 10 10:13:50 2018

Optimize a model with 842 rows, 1000 columns and 4436 nonzeros
Variable types: 0 continuous, 1000 integer (1000 binary)
Coefficient statistics:
  Matrix range     [1e+00, 1e+00]
  Objective range  [1e+00, 8e+00]
  Bounds range     [1e+00, 1e+00]
  RHS range        [1e+00, 1e+00]
Found heuristic solution: objective 19
Presolve removed 772 rows and 772 columns
Presolve time: 0.00s
Presolved: 70 rows, 228 columns, 780 nonzeros
Variable types: 0 continuous, 228 integer (228 binary)

Root relaxation: objective 2.125000e+01, 21 iterations, 0.00 seconds

    Nodes    |    Current Node    |     Objective Bounds      |     Work
 Expl Unexpl |  Obj  Depth IntInf | Incumbent    BestBd   Gap | It/Node Time

*    0     0               0      21.2500000   21.25000  0.00%     -    0s

Explored 0 nodes (21 simplex iterations) in 0.01 seconds
Thread count was 8 (of 8 available processors)

Solution count 2: 21.25 19 
Pool objective bound 21.25

Optimal solution found (tolerance 1.00e-04)
Best objective 2.125000000000e+01, best bound 2.125000000000e+01, gap 0.0000%

Gurobi 7.0.2 (linux64, Python) logging started Mon Sep 10 17:32:40 2018

Optimize a model with 842 rows, 1000 columns and 4436 nonzeros
Variable types: 0 continuous, 1000 integer (1000 binary)
Coefficient statistics:
  Matrix range     [1e+00, 1e+00]
  Objective range  [2e-02, 1e+00]
  Bounds range     [1e+00, 1e+00]
  RHS range        [1e+00, 1e+00]
Found heuristic solution: objective 1.80073
Presolve removed 780 rows and 788 columns
Presolve time: 0.02s
Presolved: 62 rows, 212 columns, 556 nonzeros
Variable types: 0 continuous, 212 integer (212 binary)

Root relaxation: objective 3.061932e+00, 68 iterations, 0.00 seconds

    Nodes    |    Current Node    |     Objective Bounds      |     Work
 Expl Unexpl |  Obj  Depth IntInf | Incumbent    BestBd   Gap | It/Node Time

*    0     0               0       3.0619320    3.06193  0.00%     -    0s

Explored 0 nodes (87 simplex iterations) in 0.09 seconds
Thread count was 8 (of 8 available processors)

Solution count 2: 3.06193 1.80073 
Pool objective bound 3.06193

Optimal solution found (tolerance 1.00e-04)
Best objective 3.061932000748e+00, best bound 3.061932000748e+00, gap 0.0000%
